g3 2 1 0	# problem trimloss
 142 72 1 0 20	# vars, constraints, objectives, ranges, eqns
 4 0	# nonlinear constraints, objectives
 0 0	# network constraints: nonlinear, linear
 20 0 0	# nonlinear vars in constraints, objectives, both
 0 0 0 1	# linear network variables; functions; arith, flags
 0 0 0 0 0	# discrete variables: binary, integer, nonlinear (b,c,o)
 954 46	# nonzeros in Jacobian, gradients
 0 0	# max name lengths: constraints, variables
 0 0 0 0 0	# common exprs: b,c,o,c1,o1
b
2 0
2 0
2 0
2 0
2 0
2 0
2 0
2 0
2 0
2 0
2 0
2 0
2 0
2 0
2 0
2 0
2 0
2 0
2 0
2 0
0 0 1
0 0 1
0 0 1
0 0 1
0 0 1
0 0 1
0 0 1
0 0 1
0 0 1
0 0 1
0 0 1
0 0 1
0 0 1
0 0 1
0 0 1
0 0 1
0 0 1
0 0 1
0 0 1
0 0 1
0 0 1
0 0 1
0 0 1
0 0 1
0 0 1
0 0 1
0 0 1
0 0 1
0 0 1
0 0 1
0 0 1
0 0 1
0 0 1
0 0 1
0 0 1
0 0 1
0 0 1
0 0 1
0 0 1
0 0 1
0 0 1
0 0 1
0 0 1
0 0 1
0 0 1
0 0 1
0 0 1
0 0 1
0 0 1
0 0 1
0 0 1
0 0 1
0 0 1
0 0 1
0 0 1
0 0 1
0 0 1
0 0 1
0 0 1
0 0 1
0 0 1
0 0 1
0 0 1
0 0 1
0 0 1
0 0 1
0 0 1
0 0 1
0 0 1
0 0 1
0 0 1
0 0 1
0 0 1
0 0 1
0 0 1
0 0 1
0 0 1
0 0 1
0 0 1
0 0 1
0 0 1
0 0 1
0 0 1
0 0 1
0 0 1
0 0 1
0 0 1
0 0 1
0 0 1
0 0 1
0 0 1
0 0 1
0 0 1
0 0 1
0 0 1
0 0 1
0 0 1
0 0 1
0 0 1
0 0 1
0 0 1
0 0 1
0 0 1
0 0 1
0 0 1
0 0 1
0 0 1
0 0 1
0 0 1
0 0 1
0 0 1
0 0 1
0 0 1
0 0 1
0 0 1
0 0 1
0 0 1
0 0 1
0 0 1
0 0 1
0 0 1
0 0 1
x20
0 1
1 1
2 1
3 1
4 1
5 1
6 1
7 1
8 1
9 1
10 1
11 1
12 1
13 1
14 1
15 1
16 1
17 1
18 1
19 1
r
2 12
2 6
2 15
2 9
2 9
2 0
2 0
2 0
2 0
2 0
2 0
2 0
2 0
2 0
2 0
2 0
2 0
2 0
2 0
2 0
2 0
2 0
2 0
2 0
2 0
4 1
4 1
4 1
4 1
4 1
4 1
4 1
4 1
4 1
4 1
4 1
4 1
4 1
4 1
4 1
4 1
4 1
4 1
4 1
4 1
2 -1
2 -1
2 -1
2 -1
2 -1
2 -1
2 -1
2 -1
2 -1
2 -1
2 -1
2 -1
2 -1
2 -1
2 -1
2 -1
2 -1
2 -1
2 -1
2 -1
2 0
2 0
2 0
2 -15
2 -12
2 -9
2 -6
C0
o54
4
o39
o2
v0
v4
o39
o2
v1
v5
o39
o2
v2
v6
o39
o2
v3
v7
C1
o54
4
o39
o2
v0
v8
o39
o2
v1
v9
o39
o2
v2
v10
o39
o2
v3
v11
C2
o54
4
o39
o2
v0
v12
o39
o2
v1
v13
o39
o2
v2
v14
o39
o2
v3
v15
C3
o54
4
o39
o2
v0
v16
o39
o2
v1
v17
o39
o2
v2
v18
o39
o2
v3
v19
C4
n0
C5
n0
C6
n0
C7
n0
C8
n0
C9
n0
C10
n0
C11
n0
C12
n0
C13
n0
C14
n0
C15
n0
C16
n0
C17
n0
C18
n0
C19
n0
C20
n0
C21
n0
C22
n0
C23
n0
C24
n0
C25
n0
C26
n0
C27
n0
C28
n0
C29
n0
C30
n0
C31
n0
C32
n0
C33
n0
C34
n0
C35
n0
C36
n0
C37
n0
C38
n0
C39
n0
C40
n0
C41
n0
C42
n0
C43
n0
C44
n0
C45
n0
C46
n0
C47
n0
C48
n0
C49
n0
C50
n0
C51
n0
C52
n0
C53
n0
C54
n0
C55
n0
C56
n0
C57
n0
C58
n0
C59
n0
C60
n0
C61
n0
C62
n0
C63
n0
C64
n0
C65
n0
C66
n0
C67
n0
C68
n0
C69
n0
C70
n0
C71
n0
O0 0
n0
k141
5
10
15
20
22
24
26
28
30
32
34
36
38
40
42
44
46
48
50
52
58
65
72
78
88
98
108
118
128
138
148
158
168
178
188
198
208
218
228
238
248
258
268
278
288
298
308
318
328
338
348
358
368
378
388
398
408
418
428
438
448
458
468
478
488
498
504
510
516
522
528
534
540
546
552
558
564
570
576
582
588
594
600
606
612
618
624
630
636
642
648
654
660
666
672
678
684
690
696
702
708
714
720
726
732
738
744
750
756
762
768
774
780
786
792
798
804
810
816
822
828
834
840
846
852
858
864
870
876
882
888
894
900
906
912
918
924
930
936
942
948
J0 70
0 0
1 0
2 0
3 0
4 0
5 0
6 0
7 0
24 -1
25 -2
26 -3
27 -4
28 -5
29 -6
30 -7
31 -8
32 -9
33 -10
34 -11
35 -12
36 -13
37 -14
38 -15
39 -1
40 -2
41 -3
42 -4
43 -5
44 -6
45 -7
46 -8
47 -9
48 -10
49 -11
50 -12
51 -1
52 -2
53 -3
54 -4
55 -5
56 -6
57 -7
58 -8
59 -9
60 -1
61 -2
62 -3
63 -4
64 -5
65 -6
66 -1
67 -2
68 -3
69 -4
70 -5
71 -1
72 -2
73 -3
74 -4
75 -5
76 -1
77 -2
78 -3
79 -4
80 -5
81 -1
82 -2
83 -3
84 -4
85 -5
J1 70
0 0
1 0
2 0
3 0
8 0
9 0
10 0
11 0
24 -1
25 -2
26 -3
27 -4
28 -5
29 -6
30 -7
31 -8
32 -9
33 -10
34 -11
35 -12
36 -13
37 -14
38 -15
39 -1
40 -2
41 -3
42 -4
43 -5
44 -6
45 -7
46 -8
47 -9
48 -10
49 -11
50 -12
51 -1
52 -2
53 -3
54 -4
55 -5
56 -6
57 -7
58 -8
59 -9
60 -1
61 -2
62 -3
63 -4
64 -5
65 -6
86 -1
87 -2
88 -3
89 -4
90 -5
91 -1
92 -2
93 -3
94 -4
95 -5
96 -1
97 -2
98 -3
99 -4
100 -5
101 -1
102 -2
103 -3
104 -4
105 -5
J2 70
0 0
1 0
2 0
3 0
12 0
13 0
14 0
15 0
24 -1
25 -2
26 -3
27 -4
28 -5
29 -6
30 -7
31 -8
32 -9
33 -10
34 -11
35 -12
36 -13
37 -14
38 -15
39 -1
40 -2
41 -3
42 -4
43 -5
44 -6
45 -7
46 -8
47 -9
48 -10
49 -11
50 -12
51 -1
52 -2
53 -3
54 -4
55 -5
56 -6
57 -7
58 -8
59 -9
60 -1
61 -2
62 -3
63 -4
64 -5
65 -6
106 -1
107 -2
108 -3
109 -4
110 -5
111 -1
112 -2
113 -3
114 -4
115 -5
116 -1
117 -2
118 -3
119 -4
120 -5
121 -1
122 -2
123 -3
124 -4
125 -5
J3 66
0 0
1 0
2 0
3 0
16 0
17 0
18 0
19 0
24 -1
25 -2
26 -3
27 -4
28 -5
29 -6
30 -7
31 -8
32 -9
33 -10
34 -11
35 -12
36 -13
37 -14
38 -15
39 -1
40 -2
41 -3
42 -4
43 -5
44 -6
45 -7
46 -8
47 -9
48 -10
49 -11
50 -12
51 -1
52 -2
53 -3
54 -4
55 -5
56 -6
57 -7
58 -8
59 -9
60 -1
61 -2
62 -3
63 -4
64 -5
65 -6
126 -1
127 -2
128 -3
129 -4
130 -1
131 -2
132 -3
133 -4
134 -1
135 -2
136 -3
137 -4
138 -1
139 -2
140 -3
141 -4
J4 42
24 1
25 2
26 3
27 4
28 5
29 6
30 7
31 8
32 9
33 10
34 11
35 12
36 13
37 14
38 15
39 1
40 2
41 3
42 4
43 5
44 6
45 7
46 8
47 9
48 10
49 11
50 12
51 1
52 2
53 3
54 4
55 5
56 6
57 7
58 8
59 9
60 1
61 2
62 3
63 4
64 5
65 6
J5 20
20 19
66 -1
67 -2
68 -3
69 -4
70 -5
86 -1
87 -2
88 -3
89 -4
90 -5
106 -1
107 -2
108 -3
109 -4
110 -5
126 -1
127 -2
128 -3
129 -4
J6 20
21 19
71 -1
72 -2
73 -3
74 -4
75 -5
91 -1
92 -2
93 -3
94 -4
95 -5
111 -1
112 -2
113 -3
114 -4
115 -5
130 -1
131 -2
132 -3
133 -4
J7 20
22 19
76 -1
77 -2
78 -3
79 -4
80 -5
96 -1
97 -2
98 -3
99 -4
100 -5
116 -1
117 -2
118 -3
119 -4
120 -5
134 -1
135 -2
136 -3
137 -4
J8 20
23 19
81 -1
82 -2
83 -3
84 -4
85 -5
101 -1
102 -2
103 -3
104 -4
105 -5
121 -1
122 -2
123 -3
124 -4
125 -5
138 -1
139 -2
140 -3
141 -4
J9 20
20 2000
66 -330
67 -660
68 -990
69 -1320
70 -1650
86 -365
87 -730
88 -1095
89 -1460
90 -1825
106 -390
107 -780
108 -1170
109 -1560
110 -1950
126 -435
127 -870
128 -1305
129 -1740
J10 20
21 2000
71 -330
72 -660
73 -990
74 -1320
75 -1650
91 -365
92 -730
93 -1095
94 -1460
95 -1825
111 -390
112 -780
113 -1170
114 -1560
115 -1950
130 -435
131 -870
132 -1305
133 -1740
J11 20
22 2000
76 -330
77 -660
78 -990
79 -1320
80 -1650
96 -365
97 -730
98 -1095
99 -1460
100 -1825
116 -390
117 -780
118 -1170
119 -1560
120 -1950
134 -435
135 -870
136 -1305
137 -1740
J12 20
23 2000
81 -330
82 -660
83 -990
84 -1320
85 -1650
101 -365
102 -730
103 -1095
104 -1460
105 -1825
121 -390
122 -780
123 -1170
124 -1560
125 -1950
138 -435
139 -870
140 -1305
141 -1740
J13 20
20 -1800
66 330
67 660
68 990
69 1320
70 1650
86 365
87 730
88 1095
89 1460
90 1825
106 390
107 780
108 1170
109 1560
110 1950
126 435
127 870
128 1305
129 1740
J14 20
21 -1800
71 330
72 660
73 990
74 1320
75 1650
91 365
92 730
93 1095
94 1460
95 1825
111 390
112 780
113 1170
114 1560
115 1950
130 435
131 870
132 1305
133 1740
J15 20
22 -1800
76 330
77 660
78 990
79 1320
80 1650
96 365
97 730
98 1095
99 1460
100 1825
116 390
117 780
118 1170
119 1560
120 1950
134 435
135 870
136 1305
137 1740
J16 20
23 -1800
81 330
82 660
83 990
84 1320
85 1650
101 365
102 730
103 1095
104 1460
105 1825
121 390
122 780
123 1170
124 1560
125 1950
138 435
139 870
140 1305
141 1740
J17 16
20 -1
24 1
25 2
26 3
27 4
28 5
29 6
30 7
31 8
32 9
33 10
34 11
35 12
36 13
37 14
38 15
J18 13
21 -1
39 1
40 2
41 3
42 4
43 5
44 6
45 7
46 8
47 9
48 10
49 11
50 12
J19 10
22 -1
51 1
52 2
53 3
54 4
55 5
56 6
57 7
58 8
59 9
J20 7
23 -1
60 1
61 2
62 3
63 4
64 5
65 6
J21 16
20 15
24 -1
25 -2
26 -3
27 -4
28 -5
29 -6
30 -7
31 -8
32 -9
33 -10
34 -11
35 -12
36 -13
37 -14
38 -15
J22 13
21 12
39 -1
40 -2
41 -3
42 -4
43 -5
44 -6
45 -7
46 -8
47 -9
48 -10
49 -11
50 -12
J23 10
22 9
51 -1
52 -2
53 -3
54 -4
55 -5
56 -6
57 -7
58 -8
59 -9
J24 7
23 6
60 -1
61 -2
62 -3
63 -4
64 -5
65 -6
J25 16
0 1
24 -3
25 -8
26 -15
27 -24
28 -35
29 -48
30 -63
31 -80
32 -99
33 -120
34 -143
35 -168
36 -195
37 -224
38 -255
J26 13
1 1
39 -3
40 -8
41 -15
42 -24
43 -35
44 -48
45 -63
46 -80
47 -99
48 -120
49 -143
50 -168
J27 10
2 1
51 -3
52 -8
53 -15
54 -24
55 -35
56 -48
57 -63
58 -80
59 -99
J28 7
3 1
60 -3
61 -8
62 -15
63 -24
64 -35
65 -48
J29 6
4 1
66 -3
67 -8
68 -15
69 -24
70 -35
J30 6
5 1
71 -3
72 -8
73 -15
74 -24
75 -35
J31 6
6 1
76 -3
77 -8
78 -15
79 -24
80 -35
J32 6
7 1
81 -3
82 -8
83 -15
84 -24
85 -35
J33 6
8 1
86 -3
87 -8
88 -15
89 -24
90 -35
J34 6
9 1
91 -3
92 -8
93 -15
94 -24
95 -35
J35 6
10 1
96 -3
97 -8
98 -15
99 -24
100 -35
J36 6
11 1
101 -3
102 -8
103 -15
104 -24
105 -35
J37 6
12 1
106 -3
107 -8
108 -15
109 -24
110 -35
J38 6
13 1
111 -3
112 -8
113 -15
114 -24
115 -35
J39 6
14 1
116 -3
117 -8
118 -15
119 -24
120 -35
J40 6
15 1
121 -3
122 -8
123 -15
124 -24
125 -35
J41 5
16 1
126 -3
127 -8
128 -15
129 -24
J42 5
17 1
130 -3
131 -8
132 -15
133 -24
J43 5
18 1
134 -3
135 -8
136 -15
137 -24
J44 5
19 1
138 -3
139 -8
140 -15
141 -24
J45 5
66 -1
67 -1
68 -1
69 -1
70 -1
J46 5
71 -1
72 -1
73 -1
74 -1
75 -1
J47 5
76 -1
77 -1
78 -1
79 -1
80 -1
J48 5
81 -1
82 -1
83 -1
84 -1
85 -1
J49 5
86 -1
87 -1
88 -1
89 -1
90 -1
J50 5
91 -1
92 -1
93 -1
94 -1
95 -1
J51 5
96 -1
97 -1
98 -1
99 -1
100 -1
J52 5
101 -1
102 -1
103 -1
104 -1
105 -1
J53 5
106 -1
107 -1
108 -1
109 -1
110 -1
J54 5
111 -1
112 -1
113 -1
114 -1
115 -1
J55 5
116 -1
117 -1
118 -1
119 -1
120 -1
J56 5
121 -1
122 -1
123 -1
124 -1
125 -1
J57 4
126 -1
127 -1
128 -1
129 -1
J58 4
130 -1
131 -1
132 -1
133 -1
J59 4
134 -1
135 -1
136 -1
137 -1
J60 4
138 -1
139 -1
140 -1
141 -1
J61 15
24 -1
25 -1
26 -1
27 -1
28 -1
29 -1
30 -1
31 -1
32 -1
33 -1
34 -1
35 -1
36 -1
37 -1
38 -1
J62 12
39 -1
40 -1
41 -1
42 -1
43 -1
44 -1
45 -1
46 -1
47 -1
48 -1
49 -1
50 -1
J63 9
51 -1
52 -1
53 -1
54 -1
55 -1
56 -1
57 -1
58 -1
59 -1
J64 6
60 -1
61 -1
62 -1
63 -1
64 -1
65 -1
J65 2
20 1
21 -1
J66 2
21 1
22 -1
J67 2
22 1
23 -1
J68 15
24 -1
25 -2
26 -3
27 -4
28 -5
29 -6
30 -7
31 -8
32 -9
33 -10
34 -11
35 -12
36 -13
37 -14
38 -15
J69 12
39 -1
40 -2
41 -3
42 -4
43 -5
44 -6
45 -7
46 -8
47 -9
48 -10
49 -11
50 -12
J70 9
51 -1
52 -2
53 -3
54 -4
55 -5
56 -6
57 -7
58 -8
59 -9
J71 6
60 -1
61 -2
62 -3
63 -4
64 -5
65 -6
G0 46
20 0.1
21 0.2
22 0.3
23 0.4
24 1
25 2
26 3
27 4
28 5
29 6
30 7
31 8
32 9
33 10
34 11
35 12
36 13
37 14
38 15
39 1
40 2
41 3
42 4
43 5
44 6
45 7
46 8
47 9
48 10
49 11
50 12
51 1
52 2
53 3
54 4
55 5
56 6
57 7
58 8
59 9
60 1
61 2
62 3
63 4
64 5
65 6
